s td 86 2 105
b 1 1 38
b 2 38 39
b 3 6 39
b 4 6 64
b 5 6 68
b 6 2 55
b 7 3
b 8 4 74
b 9 5 96
b 10 12 77
b 11 40 41
b 12 7 41
b 13 76 77
b 14 7 76
b 15 7 80
b 16 80 81
b 17 8
b 18 9 57
b 19 9 75
b 20 10 83
b 21 11
b 22 13 51
b 23 14 58
b 24 15
b 25 72 73
b 26 16 72
b 27 16 90
b 28 90 91
b 29 17 52
b 30 17 103
b 31 18 85
b 32 84 85
b 33 85
b 34 19 33
b 35 19 34
b 36 19 93
b 37 20 87
b 38 21
b 39 22 31
b 40 22 53
b 41 23 60
b 42 60 61
b 43 24 35
b 44 25
b 45 26 27
b 46 28
b 47 29
b 48 30
b 49 32
b 50 36
b 51 37
b 52 42
b 53 43
b 54 44
b 55 45
b 56 46
b 57 47
b 58 48
b 59 49
b 60 50
b 61 54
b 62 56
b 63 59
b 64 62
b 65 63
b 66 65
b 67 66
b 68 67
b 69 69
b 70 70
b 71 71
b 72 78
b 73 79
b 74 82
b 75 86
b 76 88
b 77 89
b 78 92
b 79 94
b 80 95
b 81 97
b 82 98 99
b 83 100 101
b 84 102
b 85 104
b 86 105
1 2
1 6
1 7
1 8
1 9
1 10
1 17
1 18
1 20
1 21
1 22
1 23
1 24
1 25
1 29
1 31
1 34
1 37
1 38
1 39
1 41
1 43
1 44
1 45
1 46
1 47
1 48
1 49
1 50
1 51
1 52
1 53
1 54
1 55
1 56
1 57
1 58
1 59
1 60
1 61
1 62
1 63
1 64
1 65
1 66
1 67
1 68
1 69
1 70
1 71
1 72
1 73
1 74
1 75
1 76
1 77
1 78
1 79
1 80
1 81
1 82
1 83
1 84
1 85
1 86
2 3
3 5
4 5
10 13
11 12
12 15
13 14
14 15
15 16
18 19
25 26
26 27
27 28
29 30
31 33
32 33
34 36
35 36
39 40
41 42
